certificates/rado_a15_c107_N29.cnf
c Rad2 upper bound instance: x1 + 15*x2 - x3 = 107, interval [1,29]
p cnf 29 112
1 8 14 0
-1 -8 -14 0
1 9 29 0
-1 -9 -29 0
2 8 15 0
-2 -8 -15 0
1 3 7 0
-1 -3 -7 0
3 8 16 0
-3 -8 -16 0
2 4 7 0
-2 -4 -7 0
4 8 17 0
-4 -8 -17 0
3 5 7 0
-3 -5 -7 0
5 8 18 0
-5 -8 -18 0
4 6 7 0
-4 -6 -7 0
6 8 19 0
-6 -8 -19 0
5 7 0
-5 -7 0
7 8 20 0
-7 -8 -20 0
6 7 8 0
-6 -7 -8 0
8 21 0
-8 -21 0
7 9 0
-7 -9 0
8 9 22 0
-8 -9 -22 0
7 8 10 0
-7 -8 -10 0
8 10 23 0
-8 -10 -23 0
7 9 11 0
-7 -9 -11 0
8 11 24 0
-8 -11 -24 0
7 10 12 0
-7 -10 -12 0
8 12 25 0
-8 -12 -25 0
7 11 13 0
-7 -11 -13 0
8 13 26 0
-8 -13 -26 0
7 12 14 0
-7 -12 -14 0
8 14 27 0
-8 -14 -27 0
7 13 15 0
-7 -13 -15 0
8 15 28 0
-8 -15 -28 0
7 14 16 0
-7 -14 -16 0
8 16 29 0
-8 -16 -29 0
7 15 17 0
-7 -15 -17 0
1 6 18 0
-1 -6 -18 0
7 16 18 0
-7 -16 -18 0
2 6 19 0
-2 -6 -19 0
7 17 19 0
-7 -17 -19 0
3 6 20 0
-3 -6 -20 0
7 18 20 0
-7 -18 -20 0
4 6 21 0
-4 -6 -21 0
7 19 21 0
-7 -19 -21 0
5 6 22 0
-5 -6 -22 0
7 20 22 0
-7 -20 -22 0
6 23 0
-6 -23 0
7 21 23 0
-7 -21 -23 0
6 7 24 0
-6 -7 -24 0
7 22 24 0
-7 -22 -24 0
6 8 25 0
-6 -8 -25 0
7 23 25 0
-7 -23 -25 0
6 9 26 0
-6 -9 -26 0
7 24 26 0
-7 -24 -26 0
6 10 27 0
-6 -10 -27 0
7 25 27 0
-7 -25 -27 0
6 11 28 0
-6 -11 -28 0
7 26 28 0
-7 -26 -28 0
6 12 29 0
-6 -12 -29 0
7 27 29 0
-7 -27 -29 0
