certificates/rado_a15_c107_N29.drat
6 1 7 0
7 -29 0
-28 -7 0
-6 -7 0
-7 -29 0
d -27 -7 -29 0
-29 0
-7 0
5 0
9 0
27 0
6 0
-22 0
-23 0
-26 0
-10 0
24 0
20 0
25 0
21 0
28 0
8 0
12 0
-11 0
-3 0
0
